52      1       
1       
0       0       10      2       3       4       5       6       7       10      11      12      18      
8       1       8       15      16      17      19      22      24      25      31      
1       1       8       13      16      19      20      21      24      25      31      
7       1       8       16      17      19      21      22      25      29      31      
7       1       5       9       14      21      22      24      
4       1       7       16      20      21      22      29      31      39      
6       1       2       8       25      
1       1       9       21      22      26      28      29      30      31      33      39      
7       1       5       16      20      27      29      37      
8       1       7       21      22      25      27      28      31      40      
4       1       8       23      24      25      30      33      35      37      41      
1       1       5       20      24      26      37      39      
5       1       7       22      26      32      35      38      39      51      
10      1       6       20      29      31      34      39      40      
4       1       11      30      32      33      34      35      37      38      39      41      42      51      
1       1       7       26      28      30      33      34      38      51      
2       1       4       20      27      33      34      
3       1       6       26      29      34      37      39      49      
2       1       9       32      36      37      38      39      40      41      42      51      
7       1       5       28      35      36      50      51      
6       1       7       34      35      36      38      41      49      51      
7       1       6       34      36      37      41      49      50      
1       1       4       32      34      36      42      
7       1       3       29      42      49      
4       1       4       32      42      48      51      
3       1       6       40      41      42      43      46      47      
10      1       6       36      38      39      47      48      49      
10      1       3       32      41      48      
9       1       5       36      38      46      47      48      
3       1       7       43      44      45      46      47      49      50      
7       1       7       43      44      45      46      47      48      51      
2       1       6       43      44      45      46      47      49      
8       1       3       36      48      50      
2       1       4       43      45      47      48      
7       1       4       43      44      46      47      
1       1       3       43      44      45      
8       1       3       43      44      46      
3       1       2       43      45      
6       1       2       44      46      
6       1       2       45      48      
1       1       1       44      
8       1       1       50      
4       1       1       52      
5       1       1       52      
4       1       1       52      
3       1       1       52      
9       1       1       52      
2       1       1       52      
2       1       1       52      
8       1       1       52      
7       1       1       52      
0       0       0       
